50
    1   122    86
    2    73    47
    3   152   113
    4   381   406
    5   425   435
    6    52    28
    7   182   236
    8   231   262
    9    97    44
   10   435   389
   11   255   298
   12    96   134
   13   330   355
   14   246   271
   15   273   315
   16   134   135
   17   140   164
   18     1    27
   19    59    24
   20   387   377
   21   329   332
   22   432   386
   23    91   115
   24    15     1
   25   434   491
   26   570   531
   27    97   137
   28    57    98
   29   282   340
   30   437   442
   31   480   536
   32   536   590
   33   549   522
   34   194   152
   35   396   355
   36   536   572
   37   238   227
   38   449   391
   39   357   379
   40   138   185
   41   173   166
   42    44    20
   43   519   557
   44   218   168
   45   185   190
   46     1    37
   47   236   176
   48   481   436
   49    93   118
   50   407   419
601
